(set-option :auto-config false)
(set-option :produce-unsat-cores false)
(set-option :smt.mbqi.max_iterations 10000000)
(set-option :smt.relevancy 0)
(declare-fun c0 () Bool)
(define-fun e1 () Bool (not c0))
(declare-fun c2 () (_ BitVec 64))
(define-fun e3 () (_ BitVec 64) (_ bv1024 64))
(define-fun e4 () Bool (bvult c2 e3))
(define-fun e5 () (_ BitVec 64) (_ bv2 64))
(declare-fun c6 () (_ BitVec 64))
(define-fun e7 () (_ BitVec 64) (_ bv512 64))
(define-fun e8 () Bool (bvult c6 e7))
(declare-fun c9 () (_ BitVec 64))
(define-fun e10 () Bool (bvult c9 e3))
(define-fun e11 () (_ BitVec 64) (_ bv4 64))
(declare-fun c12 ((_ BitVec 64)) (_ BitVec 64))
(define-fun e13 () (_ BitVec 64) (c12 c9))
(define-fun e14 () Bool (= e11 e13))
(define-fun e15 () Bool (and e10 e14))
(define-fun e16 () (_ BitVec 64) (_ bv0 64))
(declare-fun c17 ((_ BitVec 64) (_ BitVec 64)) (_ BitVec 64))
(define-fun e18 () (_ BitVec 64) (c17 c9 c6))
(define-fun e19 () Bool (= e16 e18))
(declare-fun c20 () (_ BitVec 64))
(define-fun e21 () Bool (bvult c20 e3))
(define-fun e22 () (_ BitVec 64) (c12 c20))
(define-fun e23 () Bool (= e16 e22))
(define-fun e24 () Bool (and e21 e23))
(declare-fun c25 ((_ BitVec 64)) (_ BitVec 64))
(define-fun e26 () (_ BitVec 64) (c25 c9))
(define-fun e27 () (_ BitVec 64) (c17 e26 e5))
(define-fun e28 () Bool (= e16 e27))
(define-fun e29 () Bool (and e1 e8 e15 e19 e24 e28))
(define-fun e30 () Bool (= c20 c2))
(define-fun e31 () (_ BitVec 64) (_ bv5 64))
(define-fun e32 () (_ BitVec 64) (c12 c2))
(define-fun e33 () (_ BitVec 64) (ite e30 e31 e32))
(define-fun e34 () Bool (not e8))
(define-fun e35 () Bool (not e15))
(define-fun e36 () Bool (not e19))
(define-fun e37 () Bool (not e21))
(define-fun e38 () Bool (not e24))
(define-fun e39 () Bool (not e28))
(define-fun e40 () Bool (and e24 e39))
(define-fun e41 () Bool (or e38 e40))
(define-fun e42 () Bool (and e21 e41))
(define-fun e43 () Bool (or e37 e42))
(define-fun e44 () Bool (and e19 e43))
(define-fun e45 () Bool (or e36 e44))
(define-fun e46 () Bool (and e15 e45))
(define-fun e47 () Bool (or e35 e46))
(define-fun e48 () Bool (and e8 e47))
(define-fun e49 () Bool (or e34 e48))
(define-fun e50 () Bool (and e1 e49))
(define-fun e51 () Bool (or c0 e50))
(define-fun e52 () (_ BitVec 64) (bvor (ite e29 e33 (_ bv0 64)) (ite e51 e32 (_ bv0 64))))
(define-fun e53 () Bool (= e5 e52))
(define-fun e54 () Bool (and e4 e53))
(define-fun e55 () Bool (or e1 e54))
(define-fun e56 () Bool (= e5 e32))
(define-fun e57 () Bool (and e4 e56))
(define-fun e58 () Bool (or e57 e1))
(define-fun e60 ((c59 (_ BitVec 64))) (_ BitVec 64) (_ bv0 64))
(define-fun e61 ((c59 (_ BitVec 64))) (_ BitVec 64) (c17 c59 (e60 c59)))
(define-fun e62 ((c59 (_ BitVec 64))) (_ BitVec 64) (_ bv1024 64))
(define-fun e63 ((c59 (_ BitVec 64))) Bool (bvult (e61 c59) (e62 c59)))
(define-fun e64 ((c59 (_ BitVec 64))) (_ BitVec 64) (_ bv3 64))
(define-fun e65 ((c59 (_ BitVec 64))) (_ BitVec 64) (c12 (e61 c59)))
(define-fun e66 ((c59 (_ BitVec 64))) Bool (= (e64 c59) (e65 c59)))
(define-fun e67 ((c59 (_ BitVec 64))) Bool (and (e63 c59) (e66 c59)))
(define-fun e68 ((c59 (_ BitVec 64))) (_ BitVec 64) (c25 (e61 c59)))
(define-fun e69 ((c59 (_ BitVec 64))) Bool (= c59 (e68 c59)))
(define-fun e70 ((c59 (_ BitVec 64))) Bool (and (e67 c59) (e69 c59)))
(define-fun e71 ((c59 (_ BitVec 64))) Bool (bvult c59 (e62 c59)))
(define-fun e72 ((c59 (_ BitVec 64))) (_ BitVec 64) (_ bv1 64))
(define-fun e73 ((c59 (_ BitVec 64))) (_ BitVec 64) (c12 c59))
(define-fun e74 ((c59 (_ BitVec 64))) Bool (= (e72 c59) (e73 c59)))
(define-fun e75 ((c59 (_ BitVec 64))) Bool (and (e71 c59) (e74 c59)))
(define-fun e76 ((c59 (_ BitVec 64))) (_ BitVec 64) (_ bv2 64))
(define-fun e77 ((c59 (_ BitVec 64))) (_ BitVec 64) (c17 c59 (e76 c59)))
(define-fun e78 ((c59 (_ BitVec 64))) Bool (= (e76 c59) (e77 c59)))
(define-fun e79 ((c59 (_ BitVec 64))) Bool (not (e78 c59)))
(define-fun e80 ((c59 (_ BitVec 64))) Bool (and (e75 c59) (e79 c59)))
(define-fun e81 ((c59 (_ BitVec 64))) Bool (not (e80 c59)))
(define-fun e82 ((c59 (_ BitVec 64))) Bool (or (e70 c59) (e81 c59)))
(define-fun e83 () Bool (forall ((c59 (_ BitVec 64))) (e82 c59)))
(define-fun e85 ((c59 (_ BitVec 64)) (c84 (_ BitVec 64))) (_ BitVec 64) (c17 c59 c84))
(declare-fun c86 ((_ BitVec 64) (_ BitVec 64)) Bool)
(define-fun e87 ((c59 (_ BitVec 64)) (c84 (_ BitVec 64))) Bool (c86 c59 c84))
(define-fun e88 ((c59 (_ BitVec 64)) (c84 (_ BitVec 64))) (_ BitVec 64) (_ bv1 64))
(define-fun e89 ((c59 (_ BitVec 64)) (c84 (_ BitVec 64))) (_ BitVec 64) (_ bv524314 64))
(declare-fun c90 ((_ BitVec 64) (_ BitVec 64)) (_ BitVec 64))
(define-fun e91 ((c59 (_ BitVec 64)) (c84 (_ BitVec 64))) (_ BitVec 64) (c90 c59 c84))
(define-fun e92 ((c59 (_ BitVec 64)) (c84 (_ BitVec 64))) (_ BitVec 64) (bvadd (e89 c59 c84) (e91 c59 c84)))
(define-fun e93 ((c59 (_ BitVec 64)) (c84 (_ BitVec 64))) (_ BitVec 64) (_ bv10 64))
(define-fun e94 ((c59 (_ BitVec 64)) (c84 (_ BitVec 64))) (_ BitVec 64) (bvshl (e92 c59 c84) (e93 c59 c84)))
(define-fun e95 ((c59 (_ BitVec 64)) (c84 (_ BitVec 64))) (_ BitVec 64) (bvor (e88 c59 c84) (e94 c59 c84)))
(define-fun e96 ((c59 (_ BitVec 64)) (c84 (_ BitVec 64))) (_ BitVec 64) (_ bv0 64))
(define-fun e97 ((c59 (_ BitVec 64)) (c84 (_ BitVec 64))) (_ BitVec 64) (ite (e87 c59 c84) (e95 c59 c84) (e96 c59 c84)))
(define-fun e98 ((c59 (_ BitVec 64)) (c84 (_ BitVec 64))) Bool (= (e85 c59 c84) (e97 c59 c84)))
(define-fun e99 ((c59 (_ BitVec 64)) (c84 (_ BitVec 64))) (_ BitVec 64) (_ bv1024 64))
(define-fun e100 ((c59 (_ BitVec 64)) (c84 (_ BitVec 64))) Bool (bvult c59 (e99 c59 c84)))
(define-fun e101 ((c59 (_ BitVec 64)) (c84 (_ BitVec 64))) (_ BitVec 64) (_ bv512 64))
(define-fun e102 ((c59 (_ BitVec 64)) (c84 (_ BitVec 64))) Bool (bvult c84 (e101 c59 c84)))
(define-fun e103 ((c59 (_ BitVec 64)) (c84 (_ BitVec 64))) (_ BitVec 64) (c25 c59))
(define-fun e104 ((c59 (_ BitVec 64)) (c84 (_ BitVec 64))) Bool (bvult (e103 c59 c84) (e99 c59 c84)))
(define-fun e105 ((c59 (_ BitVec 64)) (c84 (_ BitVec 64))) (_ BitVec 64) (c12 (e103 c59 c84)))
(define-fun e106 ((c59 (_ BitVec 64)) (c84 (_ BitVec 64))) Bool (= (e88 c59 c84) (e105 c59 c84)))
(define-fun e107 ((c59 (_ BitVec 64)) (c84 (_ BitVec 64))) Bool (and (e104 c59 c84) (e106 c59 c84)))
(define-fun e108 ((c59 (_ BitVec 64)) (c84 (_ BitVec 64))) (_ BitVec 64) (_ bv2 64))
(define-fun e109 ((c59 (_ BitVec 64)) (c84 (_ BitVec 64))) (_ BitVec 64) (c17 (e103 c59 c84) (e108 c59 c84)))
(define-fun e110 ((c59 (_ BitVec 64)) (c84 (_ BitVec 64))) Bool (= (e108 c59 c84) (e109 c59 c84)))
(define-fun e111 ((c59 (_ BitVec 64)) (c84 (_ BitVec 64))) Bool (not (e110 c59 c84)))
(define-fun e112 ((c59 (_ BitVec 64)) (c84 (_ BitVec 64))) Bool (and (e100 c59 c84) (e102 c59 c84) (e107 c59 c84) (e111 c59 c84)))
(define-fun e113 ((c59 (_ BitVec 64)) (c84 (_ BitVec 64))) (_ BitVec 64) (_ bv3 64))
(define-fun e114 ((c59 (_ BitVec 64)) (c84 (_ BitVec 64))) (_ BitVec 64) (c12 c59))
(define-fun e115 ((c59 (_ BitVec 64)) (c84 (_ BitVec 64))) Bool (= (e113 c59 c84) (e114 c59 c84)))
(define-fun e116 ((c59 (_ BitVec 64)) (c84 (_ BitVec 64))) Bool (and (e100 c59 c84) (e115 c59 c84)))
(define-fun e117 ((c59 (_ BitVec 64)) (c84 (_ BitVec 64))) (_ BitVec 64) (_ bv4 64))
(define-fun e118 ((c59 (_ BitVec 64)) (c84 (_ BitVec 64))) Bool (= (e117 c59 c84) (e114 c59 c84)))
(define-fun e119 ((c59 (_ BitVec 64)) (c84 (_ BitVec 64))) Bool (and (e100 c59 c84) (e118 c59 c84)))
(define-fun e120 ((c59 (_ BitVec 64)) (c84 (_ BitVec 64))) Bool (or (e116 c59 c84) (e119 c59 c84)))
(define-fun e121 ((c59 (_ BitVec 64)) (c84 (_ BitVec 64))) Bool (and (e112 c59 c84) (e120 c59 c84)))
(define-fun e122 ((c59 (_ BitVec 64)) (c84 (_ BitVec 64))) Bool (not (e121 c59 c84)))
(define-fun e123 ((c59 (_ BitVec 64)) (c84 (_ BitVec 64))) Bool (or (e98 c59 c84) (e122 c59 c84)))
(define-fun e124 () Bool (forall ((c59 (_ BitVec 64)) (c84 (_ BitVec 64))) (e123 c59 c84)))
(declare-fun c125 ((_ BitVec 64) (_ BitVec 64)) Bool)
(define-fun e126 ((c59 (_ BitVec 64)) (c84 (_ BitVec 64))) Bool (c125 c59 c84))
(define-fun e127 ((c59 (_ BitVec 64)) (c84 (_ BitVec 64))) (_ BitVec 64) (_ bv193 64))
(define-fun e128 ((c59 (_ BitVec 64)) (c84 (_ BitVec 64))) (_ BitVec 64) (_ bv14 64))
(declare-fun c129 ((_ BitVec 64) (_ BitVec 64)) (_ BitVec 64))
(define-fun e130 ((c59 (_ BitVec 64)) (c84 (_ BitVec 64))) (_ BitVec 64) (c129 c59 c84))
(define-fun e131 ((c59 (_ BitVec 64)) (c84 (_ BitVec 64))) (_ BitVec 64) (bvand (e128 c59 c84) (e130 c59 c84)))
(define-fun e132 ((c59 (_ BitVec 64)) (c84 (_ BitVec 64))) (_ BitVec 64) (bvor (e127 c59 c84) (e131 c59 c84)))
(define-fun e133 ((c59 (_ BitVec 64)) (c84 (_ BitVec 64))) (_ BitVec 64) (bvor (e94 c59 c84) (e132 c59 c84)))
(define-fun e134 ((c59 (_ BitVec 64)) (c84 (_ BitVec 64))) (_ BitVec 64) (_ bv525824 64))
(define-fun e135 ((c59 (_ BitVec 64)) (c84 (_ BitVec 64))) (_ BitVec 64) (bvadd (e134 c59 c84) (e91 c59 c84)))
(define-fun e136 ((c59 (_ BitVec 64)) (c84 (_ BitVec 64))) (_ BitVec 64) (bvshl (e135 c59 c84) (e93 c59 c84)))
(define-fun e137 ((c59 (_ BitVec 64)) (c84 (_ BitVec 64))) (_ BitVec 64) (bvor (e132 c59 c84) (e136 c59 c84)))
(define-fun e138 ((c59 (_ BitVec 64)) (c84 (_ BitVec 64))) (_ BitVec 64) (ite (e126 c59 c84) (e133 c59 c84) (e137 c59 c84)))
(define-fun e139 ((c59 (_ BitVec 64)) (c84 (_ BitVec 64))) (_ BitVec 64) (ite (e87 c59 c84) (e138 c59 c84) (e96 c59 c84)))
(define-fun e140 ((c59 (_ BitVec 64)) (c84 (_ BitVec 64))) Bool (= (e85 c59 c84) (e139 c59 c84)))
(define-fun e141 ((c59 (_ BitVec 64)) (c84 (_ BitVec 64))) (_ BitVec 64) (_ bv5 64))
(define-fun e142 ((c59 (_ BitVec 64)) (c84 (_ BitVec 64))) Bool (= (e141 c59 c84) (e114 c59 c84)))
(define-fun e143 ((c59 (_ BitVec 64)) (c84 (_ BitVec 64))) Bool (and (e100 c59 c84) (e142 c59 c84)))
(define-fun e144 ((c59 (_ BitVec 64)) (c84 (_ BitVec 64))) Bool (and (e112 c59 c84) (e143 c59 c84)))
(define-fun e145 ((c59 (_ BitVec 64)) (c84 (_ BitVec 64))) Bool (not (e144 c59 c84)))
(define-fun e146 ((c59 (_ BitVec 64)) (c84 (_ BitVec 64))) Bool (or (e140 c59 c84) (e145 c59 c84)))
(define-fun e147 () Bool (forall ((c59 (_ BitVec 64)) (c84 (_ BitVec 64))) (e146 c59 c84)))
(define-fun e148 ((c59 (_ BitVec 64)) (c84 (_ BitVec 64))) Bool (bvult (e91 c59 c84) (e99 c59 c84)))
(define-fun e149 ((c59 (_ BitVec 64)) (c84 (_ BitVec 64))) (_ BitVec 64) (c12 (e91 c59 c84)))
(define-fun e150 ((c59 (_ BitVec 64)) (c84 (_ BitVec 64))) Bool (= (e117 c59 c84) (e149 c59 c84)))
(define-fun e151 ((c59 (_ BitVec 64)) (c84 (_ BitVec 64))) Bool (and (e148 c59 c84) (e150 c59 c84)))
(define-fun e152 ((c59 (_ BitVec 64)) (c84 (_ BitVec 64))) (_ BitVec 64) (c25 (e91 c59 c84)))
(define-fun e153 ((c59 (_ BitVec 64)) (c84 (_ BitVec 64))) Bool (= (e103 c59 c84) (e152 c59 c84)))
(define-fun e154 ((c59 (_ BitVec 64)) (c84 (_ BitVec 64))) Bool (and (e151 c59 c84) (e153 c59 c84)))
(define-fun e155 ((c59 (_ BitVec 64)) (c84 (_ BitVec 64))) Bool (and (e112 c59 c84) (e116 c59 c84) (e87 c59 c84)))
(define-fun e156 ((c59 (_ BitVec 64)) (c84 (_ BitVec 64))) Bool (not (e155 c59 c84)))
(define-fun e157 ((c59 (_ BitVec 64)) (c84 (_ BitVec 64))) Bool (or (e154 c59 c84) (e156 c59 c84)))
(define-fun e158 () Bool (forall ((c59 (_ BitVec 64)) (c84 (_ BitVec 64))) (e157 c59 c84)))
(define-fun e159 ((c59 (_ BitVec 64)) (c84 (_ BitVec 64))) Bool (= (e141 c59 c84) (e149 c59 c84)))
(define-fun e160 ((c59 (_ BitVec 64)) (c84 (_ BitVec 64))) Bool (and (e148 c59 c84) (e159 c59 c84)))
(define-fun e161 ((c59 (_ BitVec 64)) (c84 (_ BitVec 64))) Bool (and (e153 c59 c84) (e160 c59 c84)))
(define-fun e162 ((c59 (_ BitVec 64)) (c84 (_ BitVec 64))) Bool (and (e112 c59 c84) (e119 c59 c84) (e87 c59 c84)))
(define-fun e163 ((c59 (_ BitVec 64)) (c84 (_ BitVec 64))) Bool (not (e162 c59 c84)))
(define-fun e164 ((c59 (_ BitVec 64)) (c84 (_ BitVec 64))) Bool (or (e161 c59 c84) (e163 c59 c84)))
(define-fun e165 () Bool (forall ((c59 (_ BitVec 64)) (c84 (_ BitVec 64))) (e164 c59 c84)))
(define-fun e166 ((c59 (_ BitVec 64)) (c84 (_ BitVec 64))) (_ BitVec 64) (_ bv6 64))
(define-fun e167 ((c59 (_ BitVec 64)) (c84 (_ BitVec 64))) Bool (= (e166 c59 c84) (e149 c59 c84)))
(define-fun e168 ((c59 (_ BitVec 64)) (c84 (_ BitVec 64))) Bool (and (e148 c59 c84) (e167 c59 c84)))
(define-fun e169 ((c59 (_ BitVec 64)) (c84 (_ BitVec 64))) Bool (and (e153 c59 c84) (e168 c59 c84)))
(define-fun e170 ((c59 (_ BitVec 64)) (c84 (_ BitVec 64))) Bool (and (e112 c59 c84) (e87 c59 c84) (e143 c59 c84) (e126 c59 c84)))
(define-fun e171 ((c59 (_ BitVec 64)) (c84 (_ BitVec 64))) Bool (not (e170 c59 c84)))
(define-fun e172 ((c59 (_ BitVec 64)) (c84 (_ BitVec 64))) Bool (or (e169 c59 c84) (e171 c59 c84)))
(define-fun e173 () Bool (forall ((c59 (_ BitVec 64)) (c84 (_ BitVec 64))) (e172 c59 c84)))
(define-fun e174 ((c59 (_ BitVec 64)) (c84 (_ BitVec 64))) (_ BitVec 64) (_ bv256 64))
(define-fun e175 ((c59 (_ BitVec 64)) (c84 (_ BitVec 64))) Bool (bvult (e91 c59 c84) (e174 c59 c84)))
(define-fun e176 ((c59 (_ BitVec 64)) (c84 (_ BitVec 64))) Bool (not (e126 c59 c84)))
(define-fun e177 ((c59 (_ BitVec 64)) (c84 (_ BitVec 64))) Bool (and (e112 c59 c84) (e87 c59 c84) (e143 c59 c84) (e176 c59 c84)))
(define-fun e178 ((c59 (_ BitVec 64)) (c84 (_ BitVec 64))) Bool (not (e177 c59 c84)))
(define-fun e179 ((c59 (_ BitVec 64)) (c84 (_ BitVec 64))) Bool (or (e175 c59 c84) (e178 c59 c84)))
(define-fun e180 () Bool (forall ((c59 (_ BitVec 64)) (c84 (_ BitVec 64))) (e179 c59 c84)))
(define-fun e181 ((c59 (_ BitVec 64)) (c84 (_ BitVec 64))) Bool (not (e87 c59 c84)))
(define-fun e182 ((c59 (_ BitVec 64)) (c84 (_ BitVec 64))) Bool (= (e96 c59 c84) (e91 c59 c84)))
(define-fun e183 ((c59 (_ BitVec 64)) (c84 (_ BitVec 64))) Bool (and (e181 c59 c84) (e182 c59 c84)))
(define-fun e184 ((c59 (_ BitVec 64)) (c84 (_ BitVec 64))) Bool (not (e116 c59 c84)))
(define-fun e185 ((c59 (_ BitVec 64)) (c84 (_ BitVec 64))) Bool (not (e119 c59 c84)))
(define-fun e186 ((c59 (_ BitVec 64)) (c84 (_ BitVec 64))) Bool (not (e143 c59 c84)))
(define-fun e187 ((c59 (_ BitVec 64)) (c84 (_ BitVec 64))) Bool (and (e100 c59 c84) (e102 c59 c84) (e184 c59 c84) (e185 c59 c84) (e186 c59 c84)))
(define-fun e188 ((c59 (_ BitVec 64)) (c84 (_ BitVec 64))) Bool (not (e187 c59 c84)))
(define-fun e189 ((c59 (_ BitVec 64)) (c84 (_ BitVec 64))) Bool (or (e183 c59 c84) (e188 c59 c84)))
(define-fun e190 () Bool (forall ((c59 (_ BitVec 64)) (c84 (_ BitVec 64))) (e189 c59 c84)))
(define-fun e191 ((c59 (_ BitVec 64)) (c84 (_ BitVec 64))) Bool (= (e96 c59 c84) (e130 c59 c84)))
(define-fun e192 ((c59 (_ BitVec 64)) (c84 (_ BitVec 64))) Bool (and (e176 c59 c84) (e191 c59 c84)))
(define-fun e193 ((c59 (_ BitVec 64)) (c84 (_ BitVec 64))) Bool (and (e100 c59 c84) (e102 c59 c84) (e186 c59 c84)))
(define-fun e194 ((c59 (_ BitVec 64)) (c84 (_ BitVec 64))) Bool (not (e193 c59 c84)))
(define-fun e195 ((c59 (_ BitVec 64)) (c84 (_ BitVec 64))) Bool (or (e192 c59 c84) (e194 c59 c84)))
(define-fun e196 () Bool (forall ((c59 (_ BitVec 64)) (c84 (_ BitVec 64))) (e195 c59 c84)))
(define-fun e197 () Bool (and e58 e83 e124 e147 e158 e165 e173 e180 e190 e196))
(define-fun e199 ((c198 (_ BitVec 64))) (_ BitVec 64) (c25 c198))
(define-fun e200 ((c198 (_ BitVec 64))) (_ BitVec 64) (_ bv1024 64))
(define-fun e201 ((c198 (_ BitVec 64))) Bool (bvult (e199 c198) (e200 c198)))
(define-fun e202 ((c198 (_ BitVec 64))) (_ BitVec 64) (_ bv1 64))
(define-fun e203 ((c198 (_ BitVec 64))) (_ BitVec 64) (c12 (e199 c198)))
(define-fun e204 ((c198 (_ BitVec 64))) Bool (= (e202 c198) (e203 c198)))
(define-fun e205 ((c198 (_ BitVec 64))) Bool (and (e201 c198) (e204 c198)))
(define-fun e206 ((c198 (_ BitVec 64))) Bool (bvult c198 (e200 c198)))
(define-fun e207 ((c198 (_ BitVec 64))) (_ BitVec 64) (_ bv0 64))
(define-fun e208 ((c198 (_ BitVec 64))) (_ BitVec 64) (c12 c198))
(define-fun e209 ((c198 (_ BitVec 64))) Bool (= (e207 c198) (e208 c198)))
(define-fun e210 ((c198 (_ BitVec 64))) Bool (not (e209 c198)))
(define-fun e211 ((c198 (_ BitVec 64))) Bool (and (e206 c198) (e210 c198)))
(define-fun e212 ((c198 (_ BitVec 64))) Bool (not (e211 c198)))
(define-fun e213 ((c198 (_ BitVec 64))) Bool (or (e205 c198) (e212 c198)))
(define-fun e214 () Bool (forall ((c198 (_ BitVec 64))) (e213 c198)))
(define-fun e215 () Bool (and e197 e214))
(define-fun e216 () Bool (not e215))
(define-fun e217 () Bool (or e55 e216))
(define-fun e218 () Bool (not e217))
(assert e218)
(check-sat)
